100
2978
10
10
34
21
16
75
9
40
6
15
26
0 2
0 4
0 7
0 9
0 10
0 14
0 16
0 19
0 20
0 32
0 33
0 34
0 35
0 37
0 39
0 40
0 42
0 43
0 44
0 48
0 49
0 50
0 52
0 54
0 56
0 59
0 60
0 61
0 62
0 63
0 64
0 66
0 67
0 68
0 69
0 70
0 71
0 72
0 73
0 74
0 75
0 78
0 80
0 82
0 84
0 85
0 86
0 87
0 90
0 91
0 93
0 97
1 3
1 4
1 6
1 7
1 8
1 9
1 10
1 11
1 12
1 13
1 14
1 15
1 17
1 18
1 19
1 23
1 25
1 29
1 30
1 33
1 34
1 35
1 36
1 37
1 38
1 40
1 42
1 43
1 49
1 50
1 51
1 52
1 53
1 55
1 56
1 58
1 61
1 62
1 64
1 69
1 70
1 71
1 72
1 73
1 74
1 75
1 77
1 78
1 79
1 81
1 83
1 84
1 85
1 87
1 88
1 89
1 90
1 91
1 92
1 95
1 97
1 98
1 99
2 3
2 4
2 5
2 8
2 9
2 10
2 11
2 12
2 13
2 14
2 15
2 16
2 17
2 19
2 20
2 21
2 23
2 26
2 28
2 29
2 30
2 31
2 32
2 33
2 34
2 35
2 37
2 38
2 39
2 41
2 43
2 46
2 48
2 49
2 50
2 51
2 52
2 53
2 54
2 57
2 58
2 60
2 69
2 73
2 75
2 78
2 80
2 81
2 82
2 85
2 86
2 87
2 90
2 91
2 92
2 93
2 94
2 95
3 4
3 5
3 6
3 7
3 8
3 9
3 12
3 13
3 14
3 15
3 16
3 17
3 18
3 19
3 23
3 24
3 26
3 27
3 29
3 30
3 31
3 32
3 34
3 36
3 38
3 39
3 41
3 43
3 44
3 45
3 46
3 48
3 49
3 51
3 52
3 53
3 55
3 58
3 59
3 60
3 61
3 65
3 66
3 67
3 74
3 76
3 78
3 79
3 81
3 82
3 83
3 84
3 85
3 89
3 90
3 91
3 93
3 94
3 95
4 5
4 8
4 9
4 12
4 15
4 17
4 18
4 19
4 20
4 24
4 26
4 29
4 30
4 31
4 32
4 33
4 36
4 37
4 38
4 39
4 40
4 41
4 43
4 44
4 46
4 47
4 48
4 49
4 50
4 51
4 52
4 53
4 54
4 55
4 56
4 58
4 59
4 60
4 61
4 63
4 64
4 65
4 67
4 68
4 69
4 70
4 71
4 75
4 76
4 78
4 79
4 80
4 81
4 82
4 83
4 84
4 86
4 87
4 88
4 92
4 93
4 94
4 96
5 6
5 7
5 8
5 9
5 11
5 12
5 13
5 15
5 16
5 17
5 18
5 19
5 20
5 22
5 25
5 26
5 28
5 30
5 32
5 34
5 35
5 36
5 39
5 40
5 43
5 44
5 45
5 47
5 50
5 53
5 56
5 57
5 58
5 59
5 60
5 63
5 68
5 69
5 70
5 71
5 73
5 74
5 75
5 78
5 80
5 86
5 89
5 91
5 92
5 93
5 94
5 96
5 97
5 98
5 99
6 7
6 9
6 10
6 11
6 12
6 13
6 14
6 16
6 17
6 20
6 21
6 25
6 27
6 30
6 32
6 33
6 35
6 37
6 39
6 40
6 42
6 46
6 47
6 48
6 49
6 50
6 54
6 55
6 56
6 57
6 58
6 60
6 63
6 65
6 66
6 67
6 69
6 72
6 74
6 76
6 78
6 79
6 80
6 81
6 82
6 84
6 85
6 86
6 87
6 89
6 90
6 91
6 92
6 94
6 95
6 96
6 98
6 99
7 8
7 9
7 10
7 11
7 12
7 13
7 14
7 16
7 17
7 19
7 20
7 21
7 22
7 25
7 27
7 29
7 31
7 33
7 34
7 35
7 36
7 37
7 39
7 42
7 43
7 44
7 46
7 47
7 49
7 52
7 56
7 60
7 62
7 63
7 64
7 65
7 68
7 71
7 72
7 74
7 75
7 76
7 77
7 79
7 80
7 81
7 83
7 85
7 86
7 87
7 88
7 89
7 90
7 92
7 95
7 98
7 99
8 9
8 10
8 11
8 12
8 13
8 14
8 15
8 16
8 18
8 19
8 20
8 21
8 24
8 25
8 29
8 30
8 32
8 33
8 34
8 35
8 37
8 41
8 42
8 44
8 45
8 47
8 48
8 49
8 54
8 57
8 60
8 62
8 63
8 64
8 65
8 66
8 67
8 68
8 69
8 70
8 73
8 75
8 77
8 78
8 80
8 82
8 83
8 84
8 85
8 87
8 88
8 89
8 90
8 92
8 93
8 95
8 97
9 11
9 12
9 13
9 14
9 15
9 17
9 18
9 19
9 22
9 26
9 29
9 33
9 34
9 36
9 37
9 38
9 40
9 41
9 42
9 43
9 44
9 45
9 47
9 48
9 49
9 50
9 51
9 52
9 54
9 55
9 56
9 58
9 60
9 62
9 63
9 64
9 65
9 67
9 68
9 70
9 71
9 73
9 74
9 75
9 77
9 78
9 79
9 80
9 81
9 83
9 85
9 87
9 88
9 90
9 92
9 95
9 96
9 97
9 98
9 99
10 11
10 14
10 15
10 18
10 19
10 20
10 22
10 23
10 24
10 25
10 29
10 32
10 34
10 35
10 36
10 39
10 40
10 42
10 43
10 44
10 46
10 51
10 52
10 55
10 56
10 57
10 58
10 59
10 60
10 61
10 62
10 63
10 65
10 66
10 68
10 69
10 70
10 73
10 74
10 75
10 77
10 78
10 80
10 81
10 83
10 84
10 85
10 86
10 87
10 88
10 89
10 91
10 93
10 94
10 95
10 98
10 99
11 12
11 14
11 15
11 16
11 19
11 20
11 23
11 26
11 28
11 29
11 30
11 32
11 34
11 35
11 36
11 40
11 43
11 44
11 48
11 49
11 50
11 51
11 53
11 55
11 57
11 58
11 59
11 60
11 61
11 63
11 65
11 66
11 71
11 73
11 75
11 76
11 77
11 79
11 80
11 81
11 85
11 87
11 88
11 89
11 90
11 91
11 93
11 95
11 96
11 97
12 13
12 15
12 17
12 19
12 20
12 23
12 25
12 26
12 28
12 29
12 30
12 31
12 32
12 35
12 36
12 37
12 38
12 40
12 42
12 43
12 44
12 46
12 48
12 49
12 50
12 52
12 55
12 56
12 57
12 58
12 62
12 64
12 65
12 66
12 67
12 68
12 69
12 70
12 71
12 72
12 74
12 79
12 82
12 85
12 89
12 90
12 91
12 92
12 94
12 95
12 98
12 99
13 14
13 15
13 16
13 18
13 19
13 20
13 22
13 23
13 25
13 28
13 31
13 33
13 35
13 36
13 37
13 38
13 41
13 43
13 45
13 49
13 50
13 53
13 54
13 55
13 56
13 57
13 60
13 61
13 62
13 64
13 67
13 71
13 74
13 75
13 77
13 78
13 82
13 83
13 84
13 85
13 86
13 90
13 92
13 93
13 95
13 96
13 98
14 16
14 19
14 20
14 21
14 23
14 24
14 27
14 28
14 33
14 34
14 35
14 36
14 38
14 40
14 43
14 44
14 46
14 51
14 52
14 55
14 56
14 57
14 58
14 62
14 64
14 65
14 69
14 70
14 71
14 79
14 80
14 82
14 85
14 87
14 88
14 90
14 91
14 92
14 93
14 94
14 96
14 98
15 19
15 20
15 21
15 22
15 24
15 26
15 27
15 29
15 30
15 31
15 34
15 35
15 36
15 37
15 38
15 41
15 43
15 44
15 45
15 47
15 50
15 51
15 52
15 53
15 55
15 57
15 59
15 62
15 63
15 66
15 67
15 68
15 69
15 70
15 71
15 73
15 74
15 75
15 76
15 82
15 83
15 84
15 85
15 86
15 88
15 89
15 90
15 93
15 95
15 96
15 97
15 99
16 17
16 18
16 19
16 23
16 24
16 25
16 26
16 27
16 30
16 33
16 34
16 35
16 37
16 39
16 40
16 41
16 42
16 43
16 44
16 46
16 48
16 50
16 51
16 52
16 53
16 54
16 57
16 60
16 61
16 63
16 64
16 65
16 66
16 67
16 68
16 69
16 70
16 71
16 72
16 73
16 74
16 75
16 79
16 82
16 84
16 85
16 87
16 88
16 89
16 93
16 94
16 95
16 96
16 99
17 18
17 20
17 21
17 22
17 23
17 24
17 25
17 31
17 32
17 33
17 37
17 38
17 40
17 42
17 43
17 45
17 46
17 48
17 50
17 52
17 53
17 54
17 55
17 56
17 60
17 61
17 62
17 63
17 64
17 65
17 66
17 70
17 72
17 73
17 74
17 75
17 76
17 77
17 78
17 79
17 80
17 81
17 82
17 84
17 85
17 87
17 88
17 89
17 90
17 91
17 93
17 94
17 95
17 98
18 20
18 21
18 22
18 23
18 24
18 25
18 26
18 27
18 29
18 32
18 35
18 36
18 37
18 42
18 45
18 46
18 47
18 48
18 50
18 51
18 55
18 57
18 58
18 60
18 61
18 63
18 65
18 68
18 69
18 70
18 73
18 74
18 76
18 77
18 79
18 80
18 81
18 82
18 83
18 86
18 87
18 89
18 91
18 92
18 95
18 96
18 97
18 98
18 99
19 21
19 22
19 23
19 24
19 25
19 27
19 28
19 29
19 30
19 31
19 32
19 33
19 34
19 36
19 37
19 39
19 42
19 44
19 45
19 46
19 47
19 49
19 50
19 51
19 56
19 58
19 59
19 63
19 65
19 68
19 70
19 74
19 77
19 81
19 84
19 85
19 87
19 88
19 89
19 91
19 96
20 21
20 23
20 25
20 27
20 29
20 30
20 32
20 34
20 36
20 40
20 41
20 43
20 44
20 46
20 49
20 50
20 55
20 57
20 58
20 60
20 62
20 64
20 67
20 68
20 69
20 71
20 72
20 73
20 74
20 75
20 76
20 78
20 79
20 81
20 82
20 84
20 85
20 87
20 88
20 89
20 91
20 95
20 97
20 98
20 99
21 22
21 23
21 24
21 27
21 28
21 31
21 33
21 34
21 36
21 37
21 39
21 41
21 42
21 44
21 46
21 48
21 50
21 51
21 52
21 53
21 54
21 56
21 57
21 59
21 61
21 63
21 66
21 67
21 69
21 71
21 72
21 73
21 74
21 75
21 76
21 78
21 81
21 83
21 86
21 87
21 91
21 93
21 94
21 95
21 97
21 98
22 23
22 26
22 28
22 31
22 33
22 36
22 37
22 44
22 47
22 48
22 49
22 50
22 51
22 52
22 53
22 54
22 56
22 58
22 60
22 61
22 62
22 63
22 66
22 67
22 68
22 70
22 75
22 76
22 77
22 80
22 81
22 83
22 84
22 86
22 88
22 89
22 90
22 91
22 92
22 96
22 99
23 25
23 26
23 27
23 28
23 29
23 30
23 32
23 33
23 34
23 36
23 42
23 44
23 45
23 47
23 48
23 50
23 51
23 52
23 54
23 56
23 58
23 59
23 61
23 63
23 64
23 65
23 66
23 68
23 71
23 73
23 75
23 76
23 77
23 78
23 84
23 85
23 87
23 88
23 90
23 91
23 92
23 97
23 98
23 99
24 28
24 30
24 31
24 32
24 36
24 37
24 38
24 39
24 40
24 41
24 42
24 43
24 44
24 49
24 50
24 51
24 53
24 54
24 57
24 58
24 59
24 61
24 63
24 65
24 66
24 67
24 68
24 69
24 70
24 72
24 74
24 75
24 77
24 78
24 79
24 81
24 83
24 84
24 86
24 88
24 89
24 90
24 94
24 96
24 98
25 26
25 27
25 30
25 32
25 35
25 36
25 38
25 39
25 40
25 41
25 42
25 43
25 45
25 46
25 47
25 48
25 50
25 51
25 53
25 54
25 57
25 58
25 59
25 60
25 61
25 62
25 63
25 64
25 69
25 71
25 73
25 75
25 76
25 79
25 80
25 81
25 82
25 83
25 86
25 89
25 90
25 91
25 92
25 94
25 96
25 97
25 99
26 30
26 31
26 33
26 37
26 38
26 40
26 41
26 43
26 44
26 46
26 47
26 48
26 49
26 50
26 53
26 56
26 57
26 60
26 62
26 64
26 65
26 66
26 67
26 68
26 70
26 71
26 72
26 75
26 77
26 81
26 83
26 84
26 85
26 87
26 88
26 89
26 90
26 91
26 92
26 93
26 96
26 97
26 99
27 28
27 30
27 32
27 33
27 36
27 37
27 38
27 39
27 41
27 42
27 43
27 44
27 46
27 49
27 50
27 51
27 52
27 53
27 55
27 60
27 61
27 62
27 66
27 68
27 69
27 72
27 74
27 75
27 76
27 77
27 80
27 82
27 83
27 84
27 87
27 88
27 90
27 91
27 92
27 93
27 96
27 98
28 29
28 30
28 31
28 33
28 34
28 37
28 38
28 40
28 42
28 43
28 44
28 45
28 46
28 49
28 50
28 51
28 52
28 56
28 57
28 58
28 59
28 62
28 63
28 64
28 65
28 66
28 72
28 73
28 74
28 75
28 77
28 79
28 81
28 83
28 85
28 86
28 87
28 88
28 91
28 92
28 94
28 95
28 97
28 99
29 31
29 33
29 34
29 36
29 37
29 38
29 40
29 41
29 42
29 44
29 46
29 47
29 49
29 50
29 53
29 54
29 55
29 56
29 58
29 61
29 62
29 63
29 64
29 65
29 66
29 67
29 68
29 71
29 72
29 74
29 76
29 77
29 78
29 79
29 82
29 83
29 84
29 86
29 88
29 89
29 90
29 91
29 92
29 94
29 96
29 98
30 31
30 34
30 36
30 37
30 38
30 40
30 45
30 46
30 47
30 48
30 52
30 53
30 54
30 55
30 56
30 58
30 60
30 63
30 64
30 65
30 67
30 68
30 69
30 70
30 74
30 76
30 77
30 79
30 82
30 83
30 85
30 86
30 88
30 92
30 93
30 99
31 32
31 35
31 36
31 37
31 38
31 39
31 40
31 46
31 47
31 49
31 50
31 51
31 53
31 55
31 57
31 59
31 61
31 66
31 67
31 68
31 69
31 75
31 76
31 77
31 78
31 79
31 80
31 81
31 83
31 84
31 88
31 89
31 90
31 91
31 96
31 97
31 98
31 99
32 33
32 34
32 36
32 37
32 40
32 41
32 42
32 44
32 45
32 46
32 47
32 49
32 52
32 53
32 54
32 55
32 56
32 58
32 59
32 60
32 61
32 62
32 63
32 65
32 67
32 71
32 72
32 74
32 75
32 76
32 77
32 79
32 82
32 83
32 84
32 86
32 89
32 90
32 92
32 93
32 96
32 97
32 98
33 34
33 37
33 38
33 39
33 41
33 42
33 43
33 44
33 46
33 48
33 49
33 50
33 51
33 52
33 54
33 56
33 58
33 59
33 60
33 61
33 62
33 63
33 67
33 69
33 71
33 72
33 73
33 76
33 77
33 78
33 79
33 80
33 82
33 83
33 84
33 85
33 86
33 87
33 88
33 90
33 91
33 92
33 93
33 94
33 95
33 98
33 99
34 36
34 37
34 39
34 40
34 41
34 42
34 44
34 45
34 46
34 47
34 50
34 52
34 53
34 57
34 59
34 60
34 64
34 65
34 66
34 67
34 68
34 70
34 71
34 72
34 74
34 75
34 80
34 82
34 86
34 87
34 89
34 92
34 94
34 95
35 38
35 39
35 41
35 42
35 43
35 44
35 45
35 46
35 48
35 49
35 53
35 54
35 55
35 56
35 57
35 58
35 62
35 63
35 64
35 65
35 67
35 70
35 71
35 72
35 74
35 75
35 77
35 78
35 79
35 80
35 81
35 83
35 85
35 87
35 89
35 94
35 95
35 97
35 98
35 99
36 37
36 38
36 39
36 42
36 43
36 44
36 45
36 47
36 48
36 49
36 50
36 51
36 52
36 54
36 55
36 56
36 58
36 59
36 60
36 61
36 62
36 65
36 66
36 68
36 69
36 71
36 72
36 74
36 75
36 76
36 78
36 80
36 81
36 82
36 83
36 86
36 88
36 89
36 93
36 96
36 98
37 38
37 39
37 40
37 41
37 44
37 45
37 46
37 47
37 48
37 50
37 52
37 53
37 55
37 57
37 58
37 61
37 62
37 63
37 64
37 65
37 67
37 68
37 69
37 70
37 72
37 73
37 75
37 76
37 78
37 82
37 83
37 84
37 85
37 88
37 89
37 90
37 95
37 97
38 39
38 43
38 44
38 45
38 46
38 47
38 49
38 50
38 51
38 52
38 53
38 54
38 55
38 58
38 59
38 60
38 61
38 63
38 64
38 65
38 67
38 68
38 71
38 72
38 73
38 75
38 76
38 77
38 78
38 80
38 81
38 82
38 83
38 84
38 86
38 89
38 92
38 93
38 96
38 99
39 40
39 42
39 47
39 48
39 50
39 51
39 54
39 55
39 57
39 58
39 62
39 63
39 67
39 72
39 73
39 77
39 79
39 81
39 82
39 83
39 85
39 87
39 88
39 90
39 91
39 94
39 97
39 98
39 99
40 41
40 44
40 48
40 50
40 52
40 54
40 55
40 57
40 58
40 59
40 60
40 62
40 65
40 66
40 67
40 68
40 72
40 73
40 75
40 76
40 77
40 78
40 84
40 86
40 90
40 91
40 92
40 94
40 95
40 96
40 97
40 98
41 43
41 44
41 49
41 51
41 54
41 55
41 58
41 59
41 60
41 61
41 62
41 65
41 67
41 68
41 71
41 72
41 73
41 74
41 75
41 76
41 78
41 81
41 82
41 84
41 86
41 88
41 89
41 90
41 94
41 95
41 96
41 98
41 99
42 43
42 44
42 46
42 47
42 49
42 55
42 60
42 61
42 62
42 63
42 65
42 69
42 71
42 72
42 73
42 74
42 75
42 76
42 78
42 80
42 82
42 86
42 89
42 90
42 93
42 94
42 96
42 99
43 44
43 45
43 54
43 57
43 58
43 61
43 62
43 65
43 67
43 68
43 71
43 72
43 75
43 76
43 79
43 82
43 83
43 84
43 86
43 88
43 90
43 91
43 92
43 94
43 96
44 46
44 47
44 48
44 49
44 50
44 52
44 54
44 57
44 58
44 59
44 61
44 62
44 63
44 66
44 69
44 71
44 72
44 75
44 77
44 79
44 80
44 82
44 83
44 85
44 86
44 89
44 90
44 91
44 92
44 96
44 97
44 98
44 99
45 46
45 51
45 53
45 55
45 57
45 58
45 59
45 63
45 64
45 65
45 66
45 67
45 68
45 69
45 70
45 72
45 75
45 76
45 77
45 78
45 79
45 82
45 83
45 84
45 85
45 89
45 90
45 91
45 93
45 94
45 95
45 97
45 98
46 49
46 50
46 51
46 53
46 54
46 58
46 59
46 60
46 62
46 63
46 64
46 66
46 70
46 72
46 73
46 78
46 80
46 81
46 82
46 85
46 86
46 87
46 88
46 89
46 90
46 91
46 93
46 94
46 96
46 97
46 98
47 48
47 49
47 51
47 52
47 55
47 58
47 59
47 60
47 61
47 64
47 65
47 66
47 68
47 70
47 71
47 72
47 73
47 76
47 77
47 78
47 81
47 83
47 89
47 90
47 91
47 93
47 94
47 95
47 96
47 97
47 98
47 99
48 49
48 50
48 52
48 54
48 55
48 58
48 61
48 62
48 63
48 64
48 65
48 66
48 68
48 69
48 70
48 71
48 72
48 73
48 75
48 76
48 78
48 79
48 80
48 81
48 83
48 84
48 85
48 86
48 87
48 89
48 90
48 91
48 92
48 93
48 94
48 95
48 96
48 99
49 50
49 51
49 52
49 53
49 55
49 56
49 57
49 58
49 59
49 60
49 61
49 62
49 63
49 64
49 67
49 68
49 69
49 70
49 71
49 72
49 75
49 76
49 77
49 79
49 81
49 89
49 90
49 91
49 92
49 95
50 52
50 53
50 54
50 56
50 61
50 64
50 65
50 66
50 69
50 70
50 71
50 72
50 75
50 77
50 79
50 82
50 83
50 84
50 86
50 87
50 89
50 93
50 94
50 95
50 96
50 97
50 99
51 53
51 54
51 55
51 56
51 57
51 60
51 61
51 64
51 65
51 66
51 68
51 71
51 74
51 78
51 80
51 81
51 82
51 84
51 87
51 88
51 89
51 92
51 93
51 94
51 95
51 96
51 97
51 98
51 99
52 53
52 55
52 58
52 59
52 60
52 64
52 66
52 73
52 75
52 76
52 78
52 81
52 83
52 86
52 89
52 91
52 92
52 93
52 95
52 96
52 99
53 54
53 55
53 57
53 60
53 61
53 66
53 67
53 68
53 69
53 70
53 71
53 74
53 78
53 79
53 80
53 81
53 83
53 84
53 86
53 87
53 88
53 90
53 91
53 92
53 94
53 95
53 96
53 97
54 56
54 57
54 59
54 61
54 62
54 64
54 65
54 68
54 70
54 72
54 74
54 76
54 77
54 81
54 83
54 85
54 89
54 90
54 92
54 93
54 94
54 96
54 97
54 98
55 56
55 58
55 60
55 62
55 65
55 68
55 69
55 73
55 74
55 75
55 76
55 78
55 79
55 80
55 82
55 83
55 84
55 85
55 87
55 90
55 91
55 93
55 95
55 97
55 98
55 99
56 57
56 58
56 59
56 61
56 62
56 63
56 64
56 65
56 66
56 68
56 71
56 74
56 76
56 77
56 79
56 80
56 82
56 83
56 87
56 88
56 90
56 91
56 94
56 95
56 96
56 98
57 58
57 59
57 60
57 62
57 65
57 66
57 67
57 69
57 72
57 73
57 76
57 77
57 78
57 80
57 81
57 82
57 85
57 86
57 87
57 88
57 89
57 90
57 92
57 93
57 95
57 96
57 97
57 98
58 60
58 62
58 64
58 66
58 67
58 69
58 70
58 71
58 72
58 73
58 74
58 75
58 76
58 79
58 81
58 83
58 84
58 85
58 86
58 87
58 88
58 89
58 91
58 93
58 96
58 97
58 98
59 60
59 61
59 62
59 63
59 66
59 67
59 69
59 70
59 72
59 73
59 74
59 75
59 77
59 78
59 79
59 80
59 82
59 84
59 85
59 86
59 88
59 89
59 91
59 92
59 93
59 95
59 96
59 98
59 99
60 61
60 62
60 63
60 64
60 65
60 66
60 67
60 70
60 71
60 72
60 73
60 75
60 76
60 78
60 79
60 82
60 83
60 84
60 86
60 88
60 90
60 92
60 96
61 62
61 64
61 65
61 66
61 67
61 68
61 69
61 70
61 72
61 73
61 74
61 75
61 76
61 77
61 78
61 79
61 80
61 86
61 87
61 88
61 89
61 90
61 91
61 92
61 93
61 94
61 95
61 96
61 97
62 63
62 64
62 66
62 67
62 72
62 73
62 76
62 77
62 78
62 79
62 80
62 81
62 82
62 83
62 86
62 89
62 92
62 93
62 97
62 98
63 65
63 67
63 68
63 70
63 71
63 74
63 76
63 77
63 81
63 82
63 83
63 84
63 87
63 88
63 89
63 90
63 91
63 92
63 93
63 95
63 96
63 97
63 98
63 99
64 65
64 66
64 68
64 69
64 70
64 72
64 73
64 74
64 76
64 77
64 80
64 81
64 86
64 88
64 91
64 93
64 95
64 96
64 97
64 99
65 66
65 68
65 71
65 72
65 73
65 75
65 77
65 81
65 82
65 83
65 84
65 86
65 87
65 88
65 90
65 91
65 92
65 94
65 96
65 98
65 99
66 67
66 68
66 69
66 70
66 71
66 72
66 74
66 75
66 78
66 81
66 85
66 86
66 87
66 88
66 90
66 94
66 95
66 96
66 97
66 99
67 69
67 70
67 71
67 75
67 76
67 79
67 82
67 84
67 86
67 87
67 88
67 89
67 91
67 92
67 93
67 94
67 96
67 97
67 98
68 69
68 71
68 73
68 74
68 75
68 76
68 77
68 79
68 81
68 83
68 84
68 85
68 86
68 89
68 90
68 91
68 92
68 93
68 94
68 95
68 97
68 99
69 70
69 74
69 75
69 79
69 80
69 82
69 83
69 84
69 86
69 88
69 89
69 90
69 92
69 94
69 95
69 97
69 98
70 73
70 74
70 75
70 77
70 78
70 80
70 81
70 82
70 84
70 85
70 86
70 87
70 88
70 89
70 90
70 91
70 96
70 97
70 99
71 73
71 74
71 75
71 76
71 78
71 80
71 81
71 82
71 83
71 86
71 87
71 88
71 89
71 91
71 92
71 94
71 96
71 97
71 99
72 74
72 75
72 76
72 79
72 81
72 83
72 84
72 88
72 89
72 91
72 94
72 95
72 96
72 98
72 99
73 74
73 76
73 77
73 79
73 80
73 82
73 83
73 85
73 86
73 87
73 88
73 92
73 93
73 94
73 95
73 96
73 98
74 75
74 77
74 79
74 81
74 82
74 85
74 86
74 87
74 89
74 90
74 91
74 92
74 93
74 94
74 95
74 98
74 99
75 76
75 79
75 81
75 82
75 84
75 85
75 87
75 88
75 89
75 90
75 92
75 93
75 94
75 95
75 98
76 78
76 79
76 80
76 81
76 84
76 85
76 86
76 88
76 90
76 91
76 92
76 93
76 96
76 97
76 98
76 99
77 78
77 80
77 81
77 83
77 84
77 86
77 87
77 88
77 90
77 91
77 92
77 93
77 95
77 97
77 98
77 99
78 79
78 80
78 82
78 84
78 85
78 86
78 88
78 89
78 90
78 91
78 92
78 93
78 94
78 95
78 97
78 99
79 82
79 84
79 86
79 88
79 90
79 92
79 94
79 96
79 97
79 99
80 82
80 83
80 88
80 89
80 90
80 91
80 93
80 95
80 96
80 97
80 98
81 85
81 86
81 88
81 90
81 93
81 94
81 97
81 98
82 84
82 85
82 88
82 89
82 90
82 91
82 94
82 96
82 98
83 84
83 85
83 86
83 87
83 88
83 89
83 90
83 95
83 96
83 98
84 85
84 86
84 87
84 88
84 90
84 91
84 93
84 95
84 96
84 97
84 98
85 88
85 89
85 91
85 92
85 93
85 94
85 96
85 99
86 87
86 88
86 91
86 92
86 93
86 94
86 95
86 96
86 99
87 88
87 92
87 93
87 97
87 98
88 90
88 91
88 92
88 93
88 97
88 98
88 99
89 90
89 91
89 92
89 93
89 94
89 95
89 96
89 97
89 98
90 92
90 93
90 94
90 95
90 97
90 98
91 92
91 93
91 94
91 97
91 98
92 93
92 94
92 97
92 98
92 99
93 94
93 96
93 98
93 99
94 98
95 98
95 99
96 97
96 98
96 99
97 98
68 90 94 98 38 93 77 22 27 61
87 67 82 84 54 36 89 25 23 43
26 52 75 79 1 35 46 60 31 40
72 63 62 50 95 33 47 37 45 9
59 48 86 71 96 58 16 34 70 57
4 7 92 5 11 74 66 88 30 24
81 56 0 20 10 97 14 73 2 78
39 42 12 83 41 76 65 3 69 53
6 80 13 55 29 21 8 49 51 19
85 18 32 28 44 64 91 17 15 99
